Version identifier: 12.10.0.0 | 2019-11-26 | 843d4de
CPXPARAM_WorkMem                                 28672
Tried aggregator 2 times.
MIP Presolve modified 18 coefficients.
Aggregator did 30 substitutions.
Reduced MIP has 103 rows, 120 columns, and 480 nonzeros.
Reduced MIP has 120 binaries, 0 generals, 0 SOSs, and 0 indicators.
Presolve time = 0,00 sec. (0,64 ticks)
Found incumbent of value 528,000000 after 0,00 sec. (0,95 ticks)
Probing time = 0,00 sec. (0,17 ticks)
Tried aggregator 1 time.
Detecting symmetries...
MIP Presolve eliminated 21 rows and 0 columns.
MIP Presolve added 42 rows and 0 columns.
Reduced MIP has 124 rows, 120 columns, and 501 nonzeros.
Reduced MIP has 120 binaries, 0 generals, 0 SOSs, and 0 indicators.
Presolve time = 0,00 sec. (0,58 ticks)
Probing time = 0,00 sec. (0,17 ticks)
Clique table members: 340.
MIP emphasis: balance optimality and feasibility.
MIP search method: dynamic search.
Parallel mode: deterministic, using up to 16 threads.
Root relaxation solution time = 0,00 sec. (0,50 ticks)

        Nodes                                         Cuts/
   Node  Left     Objective  IInf  Best Integer    Best Bound    ItCnt     Gap

*     0+    0                          528,0000        0,0000           100,00%
*     0+    0                          382,0000        0,0000           100,00%
*     0+    0                          375,0000        0,0000           100,00%
*     0+    0                          350,0000        0,0000           100,00%
      0     0      184,5625   114      350,0000      184,5625       71   47,27%
      0     0      187,8700   114      350,0000      Cuts: 94      107   46,32%
      0     0      190,3588   114      350,0000     Cuts: 131      153   45,61%
      0     0      191,4750   114      350,0000      Cuts: 88      187   45,29%
      0     0      194,5241   114      350,0000      Cuts: 98      236   44,42%
      0     0      195,7798   114      350,0000      Cuts: 85      278   44,06%
      0     0      196,4866   114      350,0000      Cuts: 66      308   43,86%
      0     0      197,3999   114      350,0000      Cuts: 76      344   43,60%
      0     0      198,0516   114      350,0000  ZeroHalf: 19      374   43,41%
      0     0      198,5272   114      350,0000      Cuts: 69      393   43,28%
      0     0      198,8072   114      350,0000      Cuts: 70      418   43,20%
      0     0      199,3782   114      350,0000      Cuts: 76      451   43,03%
      0     0      199,8999   114      350,0000      Cuts: 77      501   42,89%
      0     0      200,1934   114      350,0000      Cuts: 60      544   42,80%
      0     0      200,3606   114      350,0000      Cuts: 31      567   42,75%
      0     0      200,7481   114      350,0000      Cuts: 38      615   42,64%
      0     0      201,0393   114      350,0000      Cuts: 56      641   42,56%
      0     0      201,1967   114      350,0000      Cuts: 41      664   42,52%
      0     0      201,4594   114      350,0000  ZeroHalf: 22      695   42,44%
      0     0      201,9830   114      350,0000      Cuts: 48      756   42,29%
      0     0      202,2640   114      350,0000      Cuts: 57      805   42,21%
      0     0      202,5279   114      350,0000      Cuts: 28      840   42,13%
      0     0      204,2283   114      350,0000      Cuts: 48      898   41,65%
      0     0      204,8983   114      350,0000      Cuts: 57      952   41,46%
      0     0      205,6382   114      350,0000      Cuts: 70     1007   41,25%
      0     0      206,0273   114      350,0000      Cuts: 37     1060   41,14%
      0     0      206,3245   114      350,0000      Cuts: 58     1104   41,05%
      0     0      206,8126   114      350,0000      Cuts: 44     1157   40,91%
      0     0      207,0035   114      350,0000      Cuts: 48     1203   40,86%
      0     0      207,2357   114      350,0000      Cuts: 57     1261   40,79%
*     0+    0                          345,0000      207,2357            39,93%
      0     0      207,4087   114      345,0000      Cuts: 56     1312    2,42%
      0     0      207,5904   114      345,0000      Cuts: 53     1362    2,42%
      0     0        cutoff            345,0000      345,0000     1362    0,00%
Elapsed time = 0,37 sec. (141,25 ticks, tree = 0,01 MB, solutions = 5)

Clique cuts applied:  4
Cover cuts applied:  9
Mixed integer rounding cuts applied:  7
Zero-half cuts applied:  53
Gomory fractional cuts applied:  7

Root node processing (before b&c):
  Real time             =    0,37 sec. (141,27 ticks)
Parallel b&c, 16 threads:
  Real time             =    0,00 sec. (0,00 ticks)
  Sync time (average)   =    0,00 sec.
  Wait time (average)   =    0,00 sec.
                          ------------
Total (root+branch&cut) =    0,37 sec. (141,27 ticks)
